{'code': [19, 19, 13, 6, 18, 15, 8, 8, 3, 15, 1, 15, 10, 1, 12, 12, 12, 16, 15, 19, 1, 16, 3, 5, 14,
 4, 13, 19, 4, 16, 13, 19, 6, 12, 1, 8, 10, 14, 8, 14, 15, 0, 18, 10, 13, 14, 17, 10, 11, 18, 19, 4,
 6, 0, 2, 19, 4, 3, 18, 10, 5, 15, 6, 12, 14, 6, 15, 16, 9, 11, 7, 17, 1, 3, 16, 18, 18, 9, 1, 2, 4,
 7, 8, 16, 14, 10, 4, 6, 18, 14, 2, 5, 15, 4, 9, 2, 1, 1, 2, 6, 16, 16, 3, 17, 5, 13, 19, 16, 1, 19,
 8, 17, 4, 13, 17, 6, 0, 12, 17, 11, 15, 9, 10, 4, 15, 5, 4, 17, 1, 5, 14, 5, 15, 0, 9, 16, 8, 1, 18
, 10, 6, 17, 11, 12, 19, 9, 11, 0, 12, 2, 16, 9, 13, 19, 17, 15, 13, 3, 7, 11, 8, 12, 3, 12, 6, 5, 0
, 8, 7, 9, 3, 0, 13, 3, 7, 8, 4, 2, 7, 18, 8, 9, 5, 7, 18, 0, 14, 6, 19, 10, 14, 6, 18, 0, 1, 11, 14
, 18, 17, 2, 1, 11, 7, 3, 0, 7, 4, 15, 6, 5, 9, 4, 14, 6, 4, 5, 7, 16, 11, 19, 15, 11, 10, 9, 13, 3,
 2, 2, 16, 7, 18, 0, 2, 7, 17, 9, 0, 7, 11, 12], 'route': None, 'mac': [[1, 7, 7, 0, 1, 8, 6, 0, 8, 
3, 1, 3], [7, 4, 1, 4, 2, 0, 1, 0, 6, 0, 2, 3, 4], [6, 4, 9, 1, 8, 3, 0, 0, 4, 2, 2], [0, 0, 3, 7, 3
, 7, 3, 4, 2, 6, 0], [7, 3, 4, 9, 2, 1, 6, 7, 4, 1, 5, 4, 5, 4], [9, 9, 0, 2, 4, 3, 7, 7, 1, 6, 0], 
[7, 7, 4, 3, 0, 1, 1, 4, 8, 0, 5, 5, 2, 9], [0, 4, 4, 6, 8, 1, 6, 1, 5, 8, 1, 3, 4], [7, 1, 0, 3, 4,
 3, 5, 8, 8, 0, 4], [3, 8, 2, 9, 8, 6, 4, 0, 1, 2, 5, 0], [8, 4, 1, 3, 0, 4, 6, 2, 0, 0], [9, 8, 3, 
8, 6, 6, 1, 7, 8, 4, 9], [1, 2, 8, 4, 4, 6, 1, 7, 0, 0, 6], [4, 0, 9, 0, 6, 0, 3, 3, 2, 1], [0, 0, 1
, 5, 4, 1, 1, 9, 3, 2, 1, 6], [7, 0, 2, 8, 7, 6, 6, 9, 5, 1, 3, 6, 4, 9], [5, 8, 6, 7, 4, 4, 0, 6, 1
, 9, 2, 2, 0], [5, 6, 4, 4, 2, 4, 8, 1, 4, 7, 9], [2, 1, 6, 1, 2, 8, 2, 1, 4, 4, 1, 6, 4], [3, 1, 6,
 2, 3, 0, 4, 0, 7, 8, 1, 2, 9]], 'wok': None}
